
;this file is automatically generated: Tue Mar 02 16:45:47 CST 2021

;declarations generated

(declare-fun A0 () Int)
(declare-fun A1 () Int)
(declare-fun s31 () Int)
(declare-fun A2 () Int)
(declare-fun s30 () Int)
(declare-fun A3 () Int)
(declare-fun s33 () Int)
(declare-fun a_2_43 () Int)
(declare-fun A4 () Int)
(declare-fun s32 () Int)
(declare-fun A5 () Int)
(declare-fun s35 () Int)
(declare-fun A6 () Int)
(declare-fun s34 () Int)
(declare-fun A7 () Int)
(declare-fun s37 () Int)
(declare-fun a_2_47 () Int)
(declare-fun A8 () Int)
(declare-fun s36 () Int)
(declare-fun a_8_29 () Int)
(declare-fun A9 () Int)
(declare-fun s39 () Int)
(declare-fun s38 () Int)
(declare-fun s0 () Int)
(declare-fun s1 () Int)
(declare-fun s2 () Int)
(declare-fun a_1_72 () Int)
(declare-fun A10 () Int)
(declare-fun s3 () Int)
(declare-fun A11 () Int)
(declare-fun s4 () Int)
(declare-fun s5 () Int)
(declare-fun s6 () Int)
(declare-fun s7 () Int)
(declare-fun s8 () Int)
(declare-fun s9 () Int)
(declare-fun a_3_29 () Int)
(declare-fun s40 () Int)
(declare-fun s42 () Int)
(declare-fun s41 () Int)
(declare-fun s44 () Int)
(declare-fun s43 () Int)
(declare-fun s46 () Int)
(declare-fun s45 () Int)
(declare-fun s48 () Int)
(declare-fun s47 () Int)
(declare-fun s49 () Int)
(declare-fun s51 () Int)
(declare-fun s50 () Int)
(declare-fun s53 () Int)
(declare-fun s52 () Int)
(declare-fun s55 () Int)
(declare-fun s54 () Int)
(declare-fun s57 () Int)
(declare-fun s56 () Int)
(declare-fun s59 () Int)
(declare-fun s58 () Int)
(declare-fun s60 () Int)
(declare-fun s62 () Int)
(declare-fun s61 () Int)
(declare-fun s64 () Int)
(declare-fun a_2_30 () Int)
(declare-fun s63 () Int)
(declare-fun s66 () Int)
(declare-fun a_7_47 () Int)
(declare-fun s65 () Int)
(declare-fun s68 () Int)
(declare-fun s67 () Int)
(declare-fun s69 () Int)
(declare-fun a_7_44 () Int)
(declare-fun s71 () Int)
(declare-fun s70 () Int)
(declare-fun s73 () Int)
(declare-fun s72 () Int)
(declare-fun s75 () Int)
(declare-fun s74 () Int)
(declare-fun a_1_30 () Int)
(declare-fun a_6_46 () Int)
(declare-fun a_5_72 () Int)
(declare-fun a_6_43 () Int)
(declare-fun a_7_29 () Int)
(declare-fun a_1_47 () Int)
(declare-fun a_0_47 () Int)
(declare-fun a_0_44 () Int)
(declare-fun a_6_30 () Int)
(declare-fun a_10_29 () Int)
(declare-fun a_5_47 () Int)
(declare-fun a_0_30 () Int)
(declare-fun a_4_72 () Int)
(declare-fun a_11_29 () Int)
(declare-fun a_4_46 () Int)
(declare-fun a_10_43 () Int)
(declare-fun a_10_46 () Int)
(declare-fun a_5_29 () Int)
(declare-fun a_11_46 () Int)
(declare-fun a_9_30 () Int)
(declare-fun a_9_44 () Int)
(declare-fun a_9_46 () Int)
(declare-fun a_4_30 () Int)
(declare-fun s11 () Int)
(declare-fun s10 () Int)
(declare-fun s13 () Int)
(declare-fun s12 () Int)
(declare-fun s15 () Int)
(declare-fun s14 () Int)
(declare-fun s17 () Int)
(declare-fun s16 () Int)
(declare-fun s19 () Int)
(declare-fun s18 () Int)
(declare-fun a_8_46 () Int)
(declare-fun a_8_44 () Int)
(declare-fun a_11_72 () Int)
(declare-fun s20 () Int)
(declare-fun a_3_43 () Int)
(declare-fun s22 () Int)
(declare-fun s21 () Int)
(declare-fun s24 () Int)
(declare-fun a_3_47 () Int)
(declare-fun s23 () Int)
(declare-fun s26 () Int)
(declare-fun s25 () Int)
(declare-fun s28 () Int)
(declare-fun s27 () Int)
(declare-fun s29 () Int)

;formula(s) generated
(assert (and (>= A0 0) (<= A0 1)))
(assert (and (>= A1 0) (<= A1 1)))
(assert (and (>= A2 0) (<= A2 1)))
(assert (and (>= A3 0) (<= A3 1)))
(assert (and (>= A4 0) (<= A4 1)))
(assert (and (>= A5 0) (<= A5 1)))
(assert (and (>= A6 0) (<= A6 1)))
(assert (and (>= A7 0) (<= A7 1)))
(assert (and (>= A8 0) (<= A8 1)))
(assert (and (>= A9 0) (<= A9 1)))
(assert (and (>= A10 0) (<= A10 1)))
(assert (and (>= A11 0) (<= A11 1)))
(assert (and (>= s0 0) (<= s0 1)))
(assert (and (>= s1 0) (<= s1 1)))
(assert (and (>= s2 0) (<= s2 1)))
(assert (and (>= s3 0) (<= s3 1)))
(assert (and (>= s4 0) (<= s4 1)))
(assert (and (>= s5 0) (<= s5 1)))
(assert (and (>= s6 0) (<= s6 1)))
(assert (and (>= s7 0) (<= s7 1)))
(assert (and (>= s8 0) (<= s8 1)))
(assert (and (>= s9 0) (<= s9 1)))
(assert (and (>= s10 0) (<= s10 1)))
(assert (and (>= s11 0) (<= s11 1)))
(assert (and (>= s12 0) (<= s12 1)))
(assert (and (>= s13 0) (<= s13 1)))
(assert (and (>= s14 0) (<= s14 1)))
(assert (and (>= s15 0) (<= s15 1)))
(assert (and (>= s16 0) (<= s16 1)))
(assert (and (>= s17 0) (<= s17 1)))
(assert (and (>= s18 0) (<= s18 1)))
(assert (and (>= s19 0) (<= s19 1)))
(assert (and (>= s20 0) (<= s20 1)))
(assert (and (>= s21 0) (<= s21 1)))
(assert (and (>= s22 0) (<= s22 1)))
(assert (and (>= s23 0) (<= s23 1)))
(assert (and (>= s24 0) (<= s24 1)))
(assert (and (>= s25 0) (<= s25 1)))
(assert (and (>= s26 0) (<= s26 1)))
(assert (and (>= s27 0) (<= s27 1)))
(assert (and (>= s28 0) (<= s28 1)))
(assert (and (>= s29 0) (<= s29 1)))
(assert (and (>= s30 0) (<= s30 1)))
(assert (and (>= s31 0) (<= s31 1)))
(assert (and (>= s32 0) (<= s32 1)))
(assert (and (>= s33 0) (<= s33 1)))
(assert (and (>= s34 0) (<= s34 1)))
(assert (and (>= s35 0) (<= s35 1)))
(assert (and (>= s36 0) (<= s36 1)))
(assert (and (>= s37 0) (<= s37 1)))
(assert (and (>= s38 0) (<= s38 1)))
(assert (and (>= s39 0) (<= s39 1)))
(assert (and (>= s40 0) (<= s40 1)))
(assert (and (>= s41 0) (<= s41 1)))
(assert (and (>= s42 0) (<= s42 1)))
(assert (and (>= s43 0) (<= s43 1)))
(assert (and (>= s44 0) (<= s44 1)))
(assert (and (>= s45 0) (<= s45 1)))
(assert (and (>= s46 0) (<= s46 1)))
(assert (and (>= s47 0) (<= s47 1)))
(assert (and (>= s48 0) (<= s48 1)))
(assert (and (>= s49 0) (<= s49 1)))
(assert (and (>= s50 0) (<= s50 1)))
(assert (and (>= s51 0) (<= s51 1)))
(assert (and (>= s52 0) (<= s52 1)))
(assert (and (>= s53 0) (<= s53 1)))
(assert (and (>= s54 0) (<= s54 1)))
(assert (and (>= s55 0) (<= s55 1)))
(assert (and (>= s56 0) (<= s56 1)))
(assert (and (>= s57 0) (<= s57 1)))
(assert (and (>= s58 0) (<= s58 1)))
(assert (and (>= s59 0) (<= s59 1)))
(assert (and (>= s60 0) (<= s60 1)))
(assert (and (>= s61 0) (<= s61 1)))
(assert (and (>= s62 0) (<= s62 1)))
(assert (and (>= s63 0) (<= s63 1)))
(assert (and (>= s64 0) (<= s64 1)))
(assert (and (>= s65 0) (<= s65 1)))
(assert (and (>= s66 0) (<= s66 1)))
(assert (and (>= s67 0) (<= s67 1)))
(assert (and (>= s68 0) (<= s68 1)))
(assert (and (>= s69 0) (<= s69 1)))
(assert (and (>= s70 0) (<= s70 1)))
(assert (and (>= s71 0) (<= s71 1)))
(assert (and (>= s72 0) (<= s72 1)))
(assert (and (>= s73 0) (<= s73 1)))
(assert (and (>= s74 0) (<= s74 1)))
(assert (and (>= s75 0) (<= s75 1)))
(assert (and (>= a_0_30 0) (<= a_0_30 1)))
(assert (and (>= a_0_44 0) (<= a_0_44 1)))
(assert (and (>= a_0_47 0) (<= a_0_47 1)))
(assert (and (>= a_1_30 0) (<= a_1_30 1)))
(assert (and (>= a_1_47 0) (<= a_1_47 1)))
(assert (and (>= a_1_72 0) (<= a_1_72 1)))
(assert (and (>= a_2_30 0) (<= a_2_30 1)))
(assert (and (>= a_2_43 0) (<= a_2_43 1)))
(assert (and (>= a_2_47 0) (<= a_2_47 1)))
(assert (and (>= a_3_29 0) (<= a_3_29 1)))
(assert (and (>= a_3_43 0) (<= a_3_43 1)))
(assert (and (>= a_3_47 0) (<= a_3_47 1)))
(assert (and (>= a_4_30 0) (<= a_4_30 1)))
(assert (and (>= a_4_46 0) (<= a_4_46 1)))
(assert (and (>= a_4_72 0) (<= a_4_72 1)))
(assert (and (>= a_5_29 0) (<= a_5_29 1)))
(assert (and (>= a_5_47 0) (<= a_5_47 1)))
(assert (and (>= a_5_72 0) (<= a_5_72 1)))
(assert (and (>= a_6_30 0) (<= a_6_30 1)))
(assert (and (>= a_6_43 0) (<= a_6_43 1)))
(assert (and (>= a_6_46 0) (<= a_6_46 1)))
(assert (and (>= a_7_29 0) (<= a_7_29 1)))
(assert (and (>= a_7_44 0) (<= a_7_44 1)))
(assert (and (>= a_7_47 0) (<= a_7_47 1)))
(assert (and (>= a_8_29 0) (<= a_8_29 1)))
(assert (and (>= a_8_44 0) (<= a_8_44 1)))
(assert (and (>= a_8_46 0) (<= a_8_46 1)))
(assert (and (>= a_9_30 0) (<= a_9_30 1)))
(assert (and (>= a_9_44 0) (<= a_9_44 1)))
(assert (and (>= a_9_46 0) (<= a_9_46 1)))
(assert (and (>= a_10_29 0) (<= a_10_29 1)))
(assert (and (>= a_10_43 0) (<= a_10_43 1)))
(assert (and (>= a_10_46 0) (<= a_10_46 1)))
(assert (and (>= a_11_29 0) (<= a_11_29 1)))
(assert (and (>= a_11_46 0) (<= a_11_46 1)))
(assert (and (>= a_11_72 0) (<= a_11_72 1)))
(assert (= s0 0))
(assert (= s1 0))
(assert (= s2 0))
(assert (= s3 0))
(assert (= s4 0))
(assert (= s5 0))
(assert (= s6 0))
(assert (= s7 0))
(assert (= s8 0))
(assert (= s9 0))
(assert (= s10 0))
(assert (= s11 0))
(assert (= s12 0))
(assert (= s13 0))
(assert (= s14 0))
(assert (= s15 0))
(assert (= s16 0))
(assert (= s17 0))
(assert (= s18 0))
(assert (= s19 0))
(assert (= s20 0))
(assert (= s21 0))
(assert (= s22 0))
(assert (= s23 0))
(assert (= s24 0))
(assert (= s25 0))
(assert (= s26 0))
(assert (= s27 0))
(assert (= s28 0))
(assert (=> (= s29 1) (and (and (and (and (and (= a_3_29 1) (= a_5_29 1)) (= a_7_29 1)) (= a_8_29 1)) (= a_10_29 1)) (= a_11_29 1))))
(assert (=> (= s29 0) (and (and (and (and (and (= a_3_29 0) (= a_5_29 0)) (= a_7_29 0)) (= a_8_29 0)) (= a_10_29 0)) (= a_11_29 0))))
(assert (=> (= s30 1) (and (and (and (and (and (= a_0_30 1) (= a_1_30 1)) (= a_2_30 1)) (= a_4_30 1)) (= a_6_30 1)) (= a_9_30 1))))
(assert (=> (= s30 0) (and (and (and (and (and (= a_0_30 0) (= a_1_30 0)) (= a_2_30 0)) (= a_4_30 0)) (= a_6_30 0)) (= a_9_30 0))))
(assert (= s31 0))
(assert (= s32 0))
(assert (= s33 0))
(assert (= s34 0))
(assert (= s35 0))
(assert (= s36 0))
(assert (= s37 0))
(assert (= s38 0))
(assert (= s39 0))
(assert (= s40 0))
(assert (= s41 0))
(assert (= s42 0))
(assert (=> (= s43 1) (and (and (and (= a_2_43 1) (= a_3_43 1)) (= a_6_43 1)) (= a_10_43 1))))
(assert (=> (= s43 0) (and (and (and (= a_2_43 0) (= a_3_43 0)) (= a_6_43 0)) (= a_10_43 0))))
(assert (=> (= s44 1) (and (and (and (= a_0_44 1) (= a_7_44 1)) (= a_8_44 1)) (= a_9_44 1))))
(assert (=> (= s44 0) (and (and (and (= a_0_44 0) (= a_7_44 0)) (= a_8_44 0)) (= a_9_44 0))))
(assert (= s45 0))
(assert (=> (= s46 1) (and (and (and (and (and (= a_4_46 1) (= a_6_46 1)) (= a_8_46 1)) (= a_9_46 1)) (= a_10_46 1)) (= a_11_46 1))))
(assert (=> (= s46 0) (and (and (and (and (and (= a_4_46 0) (= a_6_46 0)) (= a_8_46 0)) (= a_9_46 0)) (= a_10_46 0)) (= a_11_46 0))))
(assert (=> (= s47 1) (and (and (and (and (and (= a_0_47 1) (= a_1_47 1)) (= a_2_47 1)) (= a_3_47 1)) (= a_5_47 1)) (= a_7_47 1))))
(assert (=> (= s47 0) (and (and (and (and (and (= a_0_47 0) (= a_1_47 0)) (= a_2_47 0)) (= a_3_47 0)) (= a_5_47 0)) (= a_7_47 0))))
(assert (= s48 0))
(assert (= s49 0))
(assert (= s50 0))
(assert (= s51 0))
(assert (= s52 0))
(assert (= s53 0))
(assert (= s54 0))
(assert (= s55 0))
(assert (= s56 0))
(assert (= s57 0))
(assert (= s58 0))
(assert (= s59 0))
(assert (= s60 0))
(assert (= s61 0))
(assert (= s62 0))
(assert (= s63 0))
(assert (= s64 0))
(assert (= s65 0))
(assert (= s66 0))
(assert (= s67 0))
(assert (= s68 0))
(assert (= s69 0))
(assert (= s70 0))
(assert (= s71 0))
(assert (=> (= s72 1) (and (and (and (= a_1_72 1) (= a_4_72 1)) (= a_5_72 1)) (= a_11_72 1))))
(assert (=> (= s72 0) (and (and (and (= a_1_72 0) (= a_4_72 0)) (= a_5_72 0)) (= a_11_72 0))))
(assert (= s73 0))
(assert (= s74 0))
(assert (= s75 0))
(assert (=> (or (or (= a_0_30 1) (= a_0_44 1)) (= a_0_47 1)) (= A0 1)))
(assert (=> (and (and (= a_0_30 0) (= a_0_44 0)) (= a_0_47 0)) (= A0 0)))
(assert (=> (or (or (= a_1_30 1) (= a_1_47 1)) (= a_1_72 1)) (= A1 1)))
(assert (=> (and (and (= a_1_30 0) (= a_1_47 0)) (= a_1_72 0)) (= A1 0)))
(assert (=> (or (or (= a_2_30 1) (= a_2_43 1)) (= a_2_47 1)) (= A2 1)))
(assert (=> (and (and (= a_2_30 0) (= a_2_43 0)) (= a_2_47 0)) (= A2 0)))
(assert (=> (or (or (= a_3_29 1) (= a_3_43 1)) (= a_3_47 1)) (= A3 1)))
(assert (=> (and (and (= a_3_29 0) (= a_3_43 0)) (= a_3_47 0)) (= A3 0)))
(assert (=> (or (or (= a_4_30 1) (= a_4_46 1)) (= a_4_72 1)) (= A4 1)))
(assert (=> (and (and (= a_4_30 0) (= a_4_46 0)) (= a_4_72 0)) (= A4 0)))
(assert (=> (or (or (= a_5_29 1) (= a_5_47 1)) (= a_5_72 1)) (= A5 1)))
(assert (=> (and (and (= a_5_29 0) (= a_5_47 0)) (= a_5_72 0)) (= A5 0)))
(assert (=> (or (or (= a_6_30 1) (= a_6_43 1)) (= a_6_46 1)) (= A6 1)))
(assert (=> (and (and (= a_6_30 0) (= a_6_43 0)) (= a_6_46 0)) (= A6 0)))
(assert (=> (or (or (= a_7_29 1) (= a_7_44 1)) (= a_7_47 1)) (= A7 1)))
(assert (=> (and (and (= a_7_29 0) (= a_7_44 0)) (= a_7_47 0)) (= A7 0)))
(assert (=> (or (or (= a_8_29 1) (= a_8_44 1)) (= a_8_46 1)) (= A8 1)))
(assert (=> (and (and (= a_8_29 0) (= a_8_44 0)) (= a_8_46 0)) (= A8 0)))
(assert (=> (or (or (= a_9_30 1) (= a_9_44 1)) (= a_9_46 1)) (= A9 1)))
(assert (=> (and (and (= a_9_30 0) (= a_9_44 0)) (= a_9_46 0)) (= A9 0)))
(assert (=> (or (or (= a_10_29 1) (= a_10_43 1)) (= a_10_46 1)) (= A10 1)))
(assert (=> (and (and (= a_10_29 0) (= a_10_43 0)) (= a_10_46 0)) (= A10 0)))
(assert (=> (or (or (= a_11_29 1) (= a_11_46 1)) (= a_11_72 1)) (= A11 1)))
(assert (=> (and (and (= a_11_29 0) (= a_11_46 0)) (= a_11_72 0)) (= A11 0)))
(assert (= (+ (+ (+ (+ (+ (+ (+ (+ (+ (+ (+ A0 A1) A2) A3) A4) A5) A6) A7) A8) A9) A10) A11) 12))
(assert (not (and (and (= s29 1) (= s30 1)) (= s47 1)) ))

(assert (not (and (and (and (and (= s30 1) (= s43 1)) (= s44 1)) (= s47 1)) (= s72 1)) ))

(assert (not (and (and (and (and (= s30 1) (= s43 1)) (= s46 1)) (= s47 1)) (= s72 1)) ))

(assert (not (and (and (and (and (= s43 1) (= s44 1)) (= s46 1)) (= s47 1)) (= s72 1)) ))

(assert (not (and (and (and (= s44 1) (= s46 1)) (= s47 1)) (= s72 1)) ))

(assert (not (and (and (and (= s43 1) (= s46 1)) (= s47 1)) (= s72 1)) ))

(assert (not (and (and (= s46 1) (= s47 1)) (= s72 1)) ))

(assert (not (and (and (and (= s43 1) (= s44 1)) (= s47 1)) (= s72 1)) ))

(assert (not (and (and (and (and (= s29 1) (= s43 1)) (= s44 1)) (= s46 1)) (= s72 1)) ))

(assert (not (and (and (= s29 1) (= s30 1)) (= s47 1)) ))
(assert (not (and (and (and (and (= s30 1) (= s43 1)) (= s44 1)) (= s47 1)) (= s72 1)) ))
(assert (not (and (and (and (and (= s30 1) (= s43 1)) (= s46 1)) (= s47 1)) (= s72 1)) ))
(assert (not (and (and (and (and (= s43 1) (= s44 1)) (= s46 1)) (= s47 1)) (= s72 1)) ))
(assert (not (and (and (and (= s44 1) (= s46 1)) (= s47 1)) (= s72 1)) ))
(assert (not (and (and (and (= s43 1) (= s46 1)) (= s47 1)) (= s72 1)) ))
(assert (not (and (and (= s46 1) (= s47 1)) (= s72 1)) ))
(assert (not (and (and (and (= s43 1) (= s44 1)) (= s47 1)) (= s72 1)) ))
(assert (not (and (and (and (and (= s29 1) (= s43 1)) (= s44 1)) (= s46 1)) (= s72 1)) ))
(assert (not (and (and (and (and (= s29 1) (= s30 1)) (= s44 1)) (= s46 1)) (= s72 1)) ))
(assert (not (and (= s29 1) (= s30 1)) ))
(assert (not (and (and (and (= s29 1) (= s43 1)) (= s46 1)) (= s47 1)) ))
(assert (not (and (and (and (= s30 1) (= s43 1)) (= s46 1)) (= s47 1)) ))
(assert (not (and (and (= s43 1) (= s46 1)) (= s47 1)) ))
(assert (not (and (and (and (= s29 1) (= s43 1)) (= s44 1)) (= s72 1)) ))
(assert (not (and (and (= s29 1) (= s46 1)) (= s47 1)) ))
(assert (not (and (= s46 1) (= s47 1)) ))
(assert (not (and (and (and (and (= s30 1) (= s43 1)) (= s44 1)) (= s46 1)) (= s72 1)) ))
(assert (not (and (and (and (= s43 1) (= s44 1)) (= s46 1)) (= s72 1)) ))
(assert (not (and (and (= s43 1) (= s44 1)) (= s72 1)) ))
(assert (= (+ (+ (+ (+ (+ (+ (+ (+ (+ (+ (+ (+ (+ (+ (+ (+ (+ (+ (+ (+ (+ (+ (+ (+ (+ (+ (+ (+ (+ (+ (+ (+ (+ (+ (+ (+ (+ (+ (+ (+ (+ (+ (+ (+ (+ (+ (+ (+ (+ (+ (+ (+ (+ (+ (+ (+ (+ (+ (+ (+ (+ (+ (+ (+ (+ (+ (+ (+ (+ (+ (+ (+ (+ (+ (+ s0 s1) s2) s3) s4) s5) s6) s7) s8) s9) s10) s11) s12) s13) s14) s15) s16) s17) s18) s19) s20) s21) s22) s23) s24) s25) s26) s27) s28) s29) s30) s31) s32) s33) s34) s35) s36) s37) s38) s39) s40) s41) s42) s43) s44) s45) s46) s47) s48) s49) s50) s51) s52) s53) s54) s55) s56) s57) s58) s59) s60) s61) s62) s63) s64) s65) s66) s67) s68) s69) s70) s71) s72) s73) s74) s75) 77))
